c Description of Costas arrays of order 2
p cnf 4 18
1 2 0
3 4 0
1 3 0
2 4 0
-1 -2 0
-2 -1 0
-3 -4 0
-4 -3 0
-1 -3 0
-2 -4 0
-3 -1 0
-4 -2 0
-1 -2 -3 -4 0
-1 -3 -2 -4 0
-2 -1 -4 -3 0
-2 -4 -1 -3 0
-3 -4 -1 -2 0
-4 -3 -2 -1 0
